93
0 9 2 16 32 47 77 76 80 7 
4 19 23 21 78 70 1 45 40 61 
33 87 34 35 65 50 44 69 88 25 
89 17 67 5 15 18 37 81 28 52 
31 48 85 22 62 63 30 39 83 8 
79 59 53 51 24 49 86 27 58 84 
90 11 38 43 54 36 46 29 72 66 
68 13 10 41 56 75 64 57 6 92 
20 91 42 71 82 3 14 60 74 55 
12 26 73 
